(declare-const x Int) (assert (= x 1)) (declare-const x Int) (assert (= x 1)) (declare-const x Int) (assert (= x 1)) (declare-const x Int) (assert (= x 1)) (assert (and (not (< x  10)) (< x  6)))(check-sat) (get-model)
